ACTORES = {Actor0, Actor1, Actor2};
Escenas =[|0,1,1,3
		  |1,1,0,18
		  |1,0,0,6
		  |];
Duracion=[5, 1, 3];
Disponibilidad = [|Actor0, 7
				  |Actor1, 0
				  |Actor2, 16|];
Evitar = [|Actor1, Actor2|];
